p cnf 35 89
a 1 15 0
e 2 3 4 5 6 7 8 9 10 11 12 13 14 16 17 18 19 20 21 22 23 24 25 26 27 28 29 30 31 32 33 34 35 0
-3 1 0
-3 2 0
-1 -2 3 0
6 -4 0
6 -5 0
4 5 -6 0
8 -6 0
8 7 0
6 -7 -8 0
-3 8 -9 0
3 -8 -9 0
-3 -8 9 0
3 8 9 0
-11 -4 0
-11 10 0
4 -10 11 0
-14 -13 0
-14 -10 0
13 10 14 0
12 14 -15 0
-12 -14 -15 0
12 -14 15 0
-12 14 15 0
16 -11 0
16 15 0
11 -15 -16 0
-17 9 0
-17 16 0
-9 -16 17 0
18 -6 0
18 2 0
6 -2 -18 0
20 19 0
20 -1 0
-19 1 -20 0
21 -2 0
21 20 0
2 -20 -21 0
-6 -21 -22 0
6 21 -22 0
-6 21 22 0
6 -21 22 0
23 12 0
23 -22 0
-12 22 -23 0
24 10 0
24 -5 0
-10 5 -24 0
-25 23 0
-25 24 0
-23 -24 25 0
-26 19 0
-26 5 0
-19 -5 26 0
-27 -6 0
-27 26 0
6 -26 27 0
29 19 0
29 28 0
-19 -28 -29 0
30 -27 0
30 -29 0
27 29 -30 0
-14 -5 -31 0
14 5 -31 0
-14 5 31 0
14 -5 31 0
32 30 0
32 31 0
-30 -31 -32 0
33 25 0
33 -32 0
-25 32 -33 0
-34 18 0
-34 33 0
-18 -33 34 0
-17 -34 -35 0
17 34 -35 0
-17 34 35 0
17 -34 35 0
-17 34 24 6 35 12 9 18 0
-26 34 -30 16 5 29 13 24 0
-19 -35 -29 0
1 15 13 22 27 0
16 4 26 10 -27 13 0
-34 -21 -35 8 -9 31 0
27 11 32 -14 0
3 -31 -29 -33 0
35 0
